####################################################################### 
# 
# This file contains crystal structure data downloaded from the 
# Cambridge Structural Database CSD hosted by the Cambridge 
# Crystallographic Data Centre CCDC.
# 
# Full information about CCDC data access policies and citation 
# guidelines are available at http://www.ccdc.cam.ac.uk/access/V1 
# 
# Audit and citation data items may have been added by the CCDC. 
# Please retain this information to preserve the provenance of 
# this file and to allow appropriate attribution of the data. 
# 
#######################################################################

data_zn2ndc2diquni
_audit_block_doi                 10.5517/ccrjpvs
_database_code_depnum_ccdc_archive 'CCDC 701246'
loop_
_citation_id
_citation_doi
_citation_year
1 10.1021/ja803097e 2008
_audit_update_record             
;
2008-09-08 deposited with the CCDC.	2020-03-06 downloaded from the CCDC.
;

_audit_creation_method           SHELXL-97
_chemical_name_systematic        
;
?
;
_chemical_name_common            ?
_chemical_melting_point          ?
_chemical_formula_moiety         ?
_chemical_formula_sum            'C56 H28 N4 O12 Zn2'
_chemical_formula_weight         1079.56

loop_
_atom_type_symbol
_atom_type_description
_atom_type_scat_dispersion_real
_atom_type_scat_dispersion_imag
_atom_type_scat_source
C C 0.0033 0.0016 'International Tables Vol C Tables 4.2.6.8 and 6.1.1.4'
H H 0.0000 0.0000 'International Tables Vol C Tables 4.2.6.8 and 6.1.1.4'
N N 0.0061 0.0033 'International Tables Vol C Tables 4.2.6.8 and 6.1.1.4'
O O 0.0106 0.0060 'International Tables Vol C Tables 4.2.6.8 and 6.1.1.4'
Zn Zn 0.2839 1.4301 'International Tables Vol C Tables 4.2.6.8 and 6.1.1.4'

_symmetry_cell_setting           Monoclinic
_symmetry_space_group_name_H-M   P21

loop_
_symmetry_equiv_pos_as_xyz
'x, y, z'
'-x, y+1/2, -z'

_cell_length_a                   12.935
_cell_length_b                   23.242012
_cell_length_c                   12.93505
_cell_angle_alpha                90.00
_cell_angle_beta                 90.00
_cell_angle_gamma                90.00
_cell_volume                     3888.73
_cell_formula_units_Z            2
_cell_measurement_temperature    100
_cell_measurement_reflns_used    9890
_cell_measurement_theta_min      3.52
_cell_measurement_theta_max      22.52

_exptl_crystal_description       block
_exptl_crystal_colour            yellow
_exptl_crystal_size_max          0.179
_exptl_crystal_size_mid          0.147
_exptl_crystal_size_min          0.135
_exptl_crystal_density_meas      'not measured'
_exptl_crystal_density_diffrn    0.922
_exptl_crystal_density_method    'not measured'
_exptl_crystal_F_000             1096
_exptl_absorpt_coefficient_mu    0.661
_exptl_absorpt_correction_type   none
_exptl_absorpt_correction_T_min  ?
_exptl_absorpt_correction_T_max  ?
_exptl_absorpt_process_details   none

_exptl_special_details           
;
?
;

_diffrn_ambient_temperature      100
_diffrn_radiation_wavelength     0.71073
_diffrn_radiation_type           MoK\a
_diffrn_radiation_source         'fine-focus sealed tube'
_diffrn_radiation_monochromator  graphite
_diffrn_measurement_device_type  'CCD area detector'
_diffrn_measurement_method       'phi and omega scans'
_diffrn_detector_area_resol_mean ?
_diffrn_standards_number         ?
_diffrn_standards_interval_count ?
_diffrn_standards_interval_time  ?
_diffrn_standards_decay_%        ?
_diffrn_reflns_number            70770
_diffrn_reflns_av_R_equivalents  0.1551
_diffrn_reflns_av_sigmaI/netI    0.2644
_diffrn_reflns_limit_h_min       -18
_diffrn_reflns_limit_h_max       18
_diffrn_reflns_limit_k_min       -33
_diffrn_reflns_limit_k_max       33
_diffrn_reflns_limit_l_min       -18
_diffrn_reflns_limit_l_max       17
_diffrn_reflns_theta_min         1.57
_diffrn_reflns_theta_max         30.95
_reflns_number_total             22775
_reflns_number_gt                7870
_reflns_threshold_expression     >2sigmaI

_computing_data_collection       'Bruker SMART'
_computing_cell_refinement       'Bruker SMART'
_computing_data_reduction        'Bruker SAINT'
_computing_structure_solution    'SHELXS-97 Sheldrick, 1990'
_computing_structure_refinement  'SHELXL-97 Sheldrick, 1997'
_computing_molecular_graphics    'Bruker SHELXTL'
_computing_publication_material  'Bruker SHELXTL'

_refine_special_details          
;
Refinement of F^2^ against ALL reflections. The weighted R-factor wR and
goodness of fit S are based on F^2^, conventional R-factors R are based
on F, with F set to zero for negative F^2^. The threshold expression of
F^2^ > 2sigmaF^2^ is used only for calculating R-factorsgt etc. and is
not relevant to the choice of reflections for refinement. R-factors based
on F^2^ are statistically about twice as large as those based on F, and R-
factors based on ALL data will be even larger.
;

_refine_ls_structure_factor_coef Fsqd
_refine_ls_matrix_type           full
_refine_ls_weighting_scheme      calc
_refine_ls_weighting_details     
'calc w=1/[\s^2^Fo^2^+0.1374P^2^+0.0000P] where P=Fo^2^+2Fc^2^/3'
_atom_sites_solution_primary     direct
_atom_sites_solution_secondary   difmap
_atom_sites_solution_hydrogens   geom
_refine_ls_hydrogen_treatment    constr
_refine_ls_extinction_method     SHELXL
_refine_ls_extinction_coef       0.016411
_refine_ls_extinction_expression Fc^*^=kFc[1+0.001xFc^2^\l^3^/sin2\q]^-1/4^
_refine_ls_abs_structure_details 'Flack H D 1983, Acta Cryst. A39, 876-881'
_refine_ls_abs_structure_Flack   0.32316
_refine_ls_number_reflns         22775
_refine_ls_number_parameters     669
_refine_ls_number_restraints     1
_refine_ls_R_factor_all          0.1760
_refine_ls_R_factor_gt           0.0981
_refine_ls_wR_factor_ref         0.2438
_refine_ls_wR_factor_gt          0.2275
_refine_ls_goodness_of_fit_ref   0.779
_refine_ls_restrained_S_all      0.779
_refine_ls_shift/su_max          0.002
_refine_ls_shift/su_mean         0.000

loop_
_atom_site_label
_atom_site_type_symbol
_atom_site_fract_x
_atom_site_fract_y
_atom_site_fract_z
_atom_site_U_iso_or_equiv
_atom_site_adp_type
_atom_site_occupancy
_atom_site_symmetry_multiplicity
_atom_site_calc_flag
_atom_site_refinement_flags
_atom_site_disorder_assembly
_atom_site_disorder_group
C1 C 0.54857 1.18845 0.63126 0.0822 Uani 1 1 d . . .
C2 C 0.42654 1.19773 0.63935 0.049416 Uani 1 1 d . . .
C3 C 0.37525 1.15173 0.63795 0.057617 Uani 1 1 d . . .
H3 H 0.4086 1.1153 0.6354 0.069 Uiso 1 1 calc R . .
C4 C 0.25285 1.15673 0.64065 0.056019 Uani 1 1 d . . .
C5 C 0.21335 1.21383 0.66295 0.051717 Uani 1 1 d . . .
C6 C 0.28335 1.26623 0.65654 0.045615 Uani 1 1 d . . .
H6 H 0.2531 1.3034 0.6590 0.055 Uiso 1 1 calc R . .
C7 C 0.38845 1.26153 0.64745 0.054417 Uani 1 1 d . . .
H7 H 0.4337 1.2936 0.6461 0.065 Uiso 1 1 calc R . .
C8 C 0.19126 1.10903 0.64406 0.0702 Uani 1 1 d . . .
H8 H 0.2176 1.0712 0.6360 0.084 Uiso 1 1 calc R . .
C9 C 0.09355 1.11964 0.65925 0.064718 Uani 1 1 d . . .
H9 H 0.0510 1.0868 0.6700 0.078 Uiso 1 1 calc R . .
C10 C 0.04036 1.17534 0.66176 0.0802 Uani 1 1 d . . .
C11 C 0.10925 1.21843 0.66095 0.054317 Uani 1 1 d . . .
H11 H 0.0818 1.2563 0.6587 0.065 Uiso 1 1 calc R . .
C12 C 0.76146 1.17393 0.45946 0.0622 Uani 1 1 d . . .
C13 C 0.72596 1.19654 0.84897 0.0692 Uani 1 1 d . . .
C14 C 0.73397 1.20384 0.94687 0.0842 Uani 1 1 d . . .
C15 C 0.73795 1.14723 1.02355 0.046416 Uani 1 1 d . . .
H15 H 0.7394 1.1094 0.9956 0.056 Uiso 1 1 calc R . .
C16 C 0.73875 1.15513 1.11926 0.052017 Uani 1 1 d . . .
C17 C 0.74445 1.21133 1.16555 0.049817 Uani 1 1 d . . .
C18 C 0.75065 1.26192 1.10735 0.044115 Uani 1 1 d . . .
H18 H 0.7689 1.2985 1.1342 0.053 Uiso 1 1 calc R . .
C19 C 0.72825 1.25173 1.01285 0.054816 Uani 1 1 d . . .
H19 H 0.7010 1.2846 0.9788 0.066 Uiso 1 1 calc R . .
C20 C 0.75246 1.10683 1.19015 0.057918 Uani 1 1 d . . .
H20 H 0.7645 1.0705 1.1587 0.069 Uiso 1 1 calc R . .
C21 C 0.75007 1.10703 1.29886 0.0823 Uani 1 1 d . . .
H21 H 0.7483 1.0733 1.3404 0.098 Uiso 1 1 calc R . .
C22 C 0.75034 1.16822 1.34144 0.034813 Uani 1 1 d . . .
C23 C 0.75805 1.21513 1.28424 0.044315 Uani 1 1 d . . .
H23 H 0.7718 1.2512 1.3159 0.053 Uiso 1 1 calc R . .
C24 C 0.93006 1.17754 0.66585 0.0652 Uani 1 1 d . . .
C25 C 0.75976 1.01573 0.78106 0.062319 Uani 1 1 d . . .
H25 H 0.7840 1.0457 0.8246 0.075 Uiso 1 1 calc R . .
C26 C 0.76947 0.96194 0.81686 0.0863 Uani 1 1 d . . .
H26 H 0.7894 0.9536 0.8859 0.103 Uiso 1 1 calc R . .
C27 C 0.74906 0.92153 0.74926 0.0662 Uani 1 1 d . . .
H27 H 0.7719 0.8834 0.7622 0.080 Uiso 1 1 calc R . .
C28 C 0.69074 0.93393 0.65185 0.047416 Uani 1 1 d . . .
C29 C 0.69676 1.00254 0.62447 0.0712 Uani 1 1 d . . .
C30 C 0.63015 1.01253 0.53676 0.061418 Uani 1 1 d . . .
H30 H 0.6087 1.0511 0.5254 0.074 Uiso 1 1 calc R . .
C31 C 0.59647 0.97454 0.47207 0.0903 Uani 1 1 d . . .
H31 H 0.5701 0.9875 0.4075 0.109 Uiso 1 1 calc R . .
C32 C 0.59657 0.91064 0.49316 0.0903 Uani 1 1 d . . .
H32 H 0.5643 0.8824 0.4507 0.108 Uiso 1 1 calc R . .
C33 C 0.64947 0.89914 0.58177 0.0913 Uani 1 1 d . . .
C34 C 0.58226 0.80444 0.62346 0.0702 Uani 1 1 d . . .
C35 C 0.76578 0.81463 0.58306 0.0692 Uani 1 1 d . . .
C36 C 0.77636 0.75334 0.60216 0.0752 Uani 1 1 d . . .
C37 C 0.87237 0.72555 0.58908 0.0883 Uani 1 1 d . . .
H37 H 0.9267 0.7461 0.5563 0.105 Uiso 1 1 calc R . .
C38 C 0.88907 0.67567 0.61809 0.1154 Uani 1 1 d . . .
H38 H 0.9585 0.6635 0.6278 0.138 Uiso 1 1 calc R . .
C39 C 0.81377 0.63884 0.63586 0.0732 Uani 1 1 d . . .
C40 C 0.71506 0.66084 0.65716 0.0652 Uani 1 1 d . . .
C41 C 0.69736 0.72223 0.62605 0.055418 Uani 1 1 d . . .
C42 C 0.60446 0.74054 0.63846 0.0772 Uani 1 1 d . . .
C43 C 0.51925 0.70633 0.66656 0.061718 Uani 1 1 d . . .
H43 H 0.4516 0.7217 0.6737 0.074 Uiso 1 1 calc R . .
C44 C 0.54057 0.64914 0.68287 0.0802 Uani 1 1 d . . .
H44 H 0.4877 0.6249 0.7094 0.096 Uiso 1 1 calc R . .
C45 C 0.62087 0.62944 0.66517 0.0842 Uani 1 1 d . . .
C46 C 0.635011 0.55755 0.666110 0.1254 Uani 1 1 d . . .
C47 C 0.811611 0.57215 0.65017 0.0993 Uani 1 1 d . . .
C48 C 0.76406 0.47764 0.71346 0.0742 Uani 1 1 d . . .
C49 C 0.81488 0.46935 0.82209 0.1234 Uani 1 1 d . . .
H49 H 0.8243 0.5026 0.8636 0.147 Uiso 1 1 calc R . .
C50 C 0.852717 0.40799 0.869216 0.2409 Uani 1 1 d . . .
H50 H 0.8924 0.4006 0.9296 0.288 Uiso 1 1 calc R . .
C51 C 0.80189 0.35916 0.780710 0.1254 Uani 1 1 d . . .
H51 H 0.7882 0.3205 0.8002 0.150 Uiso 1 1 calc R . .
C52 C 0.77753 0.3818318 0.66123 0.01249 Uani 1 1 d . . .
C53 C 0.74345 0.43494 0.64326 0.0662 Uani 1 1 d . . .
C54 C 0.69657 0.45014 0.54187 0.0913 Uani 1 1 d . . .
H54 H 0.6873 0.4888 0.5204 0.110 Uiso 1 1 calc R . .
C55 C 0.66766 0.40484 0.48156 0.0722 Uani 1 1 d . . .
H55 H 0.6280 0.4092 0.4202 0.087 Uiso 1 1 calc R . .
C56 C 0.69699 0.35796 0.51328 0.1224 Uani 1 1 d . . .
H56 H 0.6929 0.3295 0.4604 0.147 Uiso 1 1 calc R . .
N1 N 0.71935 1.03153 0.69035 0.068118 Uani 1 1 d . . .
N2 N 0.67406 0.83173 0.59715 0.079719 Uani 1 1 d . . .
N3 N 0.74746 0.54254 0.67626 0.0832 Uani 1 1 d . . .
N4 N 0.73434 0.33452 0.60484 0.053313 Uani 1 1 d . . .
O1 O 0.57965 1.14383 0.63315 0.085618 Uani 1 1 d . . .
O2 O 0.58514 1.23853 0.61965 0.1002 Uani 1 1 d . . .
O3 O 0.75445 1.13083 0.50554 0.078916 Uani 1 1 d . . .
O4 O 0.75325 1.22242 0.49354 0.075316 Uani 1 1 d . . .
O5 O 0.71926 1.14233 0.80465 0.1223 Uani 1 1 d . . .
O6 O 0.73827 1.24334 0.79575 0.1253 Uani 1 1 d . . .
O7 O 0.88066 1.13333 0.67196 0.1172 Uani 1 1 d . . .
O8 O 0.89984 1.23122 0.65085 0.075216 Uani 1 1 d . . .
O9 O 0.83955 0.84293 0.55535 0.101419 Uani 1 1 d . . .
O10 O 0.50355 0.82483 0.64805 0.097518 Uani 1 1 d . . .
O11 O 0.92286 0.54973 0.65895 0.1152 Uani 1 1 d . . .
O12 O 0.57246 0.52843 0.71706 0.1232 Uani 1 1 d . . .
Zn1 Zn 0.747886 1.251283 0.641075 0.04932 Uani 1 1 d . . .
Zn2 Zn 0.728876 1.123293 0.658906 0.05423 Uani 1 1 d . . .

loop_
_atom_site_aniso_label
_atom_site_aniso_U_11
_atom_site_aniso_U_22
_atom_site_aniso_U_33
_atom_site_aniso_U_23
_atom_site_aniso_U_13
_atom_site_aniso_U_12
C1 0.0896 0.0645 0.0936 0.0066 -0.0084 -0.0266
C2 0.0383 0.0565 0.0544 -0.0043 -0.0013 -0.0033
C3 0.0594 0.0514 0.0634 0.0083 -0.0063 0.0094
C4 0.0414 0.0545 0.0735 0.0183 0.0113 0.0023
C5 0.0514 0.0484 0.0564 -0.0093 -0.0133 -0.0013
C6 0.0484 0.0424 0.0473 0.0072 -0.0083 0.0103
C7 0.0524 0.0364 0.0764 0.0003 0.0003 0.0053
C8 0.0665 0.0495 0.0966 0.0054 -0.0114 0.0004
C9 0.0404 0.0775 0.0774 0.0034 -0.0013 -0.0174
C10 0.0706 0.0716 0.0986 0.0044 -0.0094 0.0135
C11 0.0484 0.0534 0.0624 -0.0073 0.0033 0.0083
C12 0.0745 0.0606 0.0535 -0.0064 -0.0024 -0.0074
C13 0.0745 0.0656 0.0686 0.0155 0.0024 0.0024
C14 0.1107 0.0706 0.0736 -0.0024 0.0075 -0.0035
C15 0.0514 0.0534 0.0354 -0.0093 -0.0063 0.0043
C16 0.0454 0.0544 0.0575 0.0123 0.0033 -0.0113
C17 0.0694 0.0424 0.0394 -0.0123 -0.0093 -0.0043
C18 0.0624 0.0264 0.0454 -0.0033 0.0163 0.0013
C19 0.0614 0.0373 0.0664 0.0034 -0.0283 0.0054
C20 0.0955 0.0354 0.0434 -0.0153 0.0093 -0.0033
C21 0.1488 0.0444 0.0534 0.0103 0.0324 -0.0054
C22 0.0343 0.0393 0.0313 -0.0022 0.0042 -0.0062
C23 0.0654 0.0403 0.0283 -0.0093 -0.0073 -0.0133
C24 0.0665 0.0626 0.0695 0.0074 -0.0023 0.0244
C25 0.0825 0.0474 0.0585 0.0043 -0.0074 0.0024
C26 0.1368 0.0625 0.0605 -0.0044 0.0115 -0.0075
C27 0.0835 0.0545 0.0625 0.0184 -0.0064 0.0084
C28 0.0263 0.0444 0.0735 0.0063 -0.0023 0.0093
C29 0.0595 0.0886 0.0675 0.0145 0.0134 0.0185
C30 0.0504 0.0585 0.0765 -0.0114 -0.0054 0.0103
C31 0.0846 0.0907 0.0977 0.0275 -0.0055 0.0015
C32 0.1197 0.0847 0.0675 -0.0064 -0.0075 -0.0165
C33 0.1067 0.0867 0.0826 -0.0105 -0.0015 -0.0026
C34 0.0464 0.0746 0.0886 0.0004 -0.0034 -0.0194
C35 0.1047 0.0454 0.0585 -0.0013 0.0004 -0.0025
C36 0.0655 0.0876 0.0745 -0.0435 0.0104 0.0045
C37 0.0666 0.0927 0.1047 -0.0115 -0.0065 0.0035
C38 0.0556 0.16814 0.1239 -0.0358 0.0145 0.0138
C39 0.0695 0.0807 0.0705 -0.0154 0.0004 0.0015
C40 0.0695 0.0615 0.0665 0.0184 -0.0014 -0.0064
C41 0.0665 0.0474 0.0544 -0.0123 0.0114 -0.0064
C42 0.0705 0.0707 0.0906 0.0094 0.0004 0.0025
C43 0.0494 0.0554 0.0815 -0.0063 0.0073 0.0003
C44 0.0615 0.0575 0.1237 -0.0045 0.0225 -0.0034
C45 0.0856 0.0726 0.0956 -0.0215 0.0045 0.0066
C46 0.14111 0.0979 0.13710 0.0007 0.0368 -0.0258
C47 0.14911 0.0867 0.0636 0.0005 0.0006 -0.0018
C48 0.0906 0.0706 0.0615 0.0114 -0.0104 0.0084
C49 0.1168 0.1039 0.14910 -0.0067 -0.0337 0.0257
C50 0.282 0.222 0.232 -0.02417 0.03817 0.07619
C51 0.0988 0.1109 0.16711 -0.0018 -0.0197 0.0257
C52 0.009919 0.0092 0.0182 -0.001916 0.002417 0.002617
C53 0.0635 0.0575 0.0796 0.0124 -0.0104 0.0104
C54 0.1097 0.0826 0.0846 -0.0085 -0.0105 0.0355
C55 0.0695 0.0726 0.0775 0.0054 -0.0294 0.0104
C56 0.13510 0.16213 0.0707 0.0027 0.0076 0.0089
N1 0.0604 0.0905 0.0554 -0.0114 -0.0043 -0.0144
N2 0.0875 0.0644 0.0885 -0.0294 0.0134 0.0064
N3 0.0765 0.0796 0.0935 0.0134 -0.0084 0.0074
N4 0.0543 0.0493 0.0583 -0.0063 -0.0093 -0.0083
O1 0.0934 0.0765 0.0884 -0.0113 0.0153 -0.0073
O2 0.0633 0.1227 0.1145 0.0304 -0.0063 -0.0044
O3 0.1224 0.0714 0.0443 0.0143 0.0013 0.0154
O4 0.1014 0.0634 0.0623 0.0003 0.0083 0.0023
O5 0.1586 0.1237 0.0864 0.0004 0.0194 -0.0345
O6 0.1887 0.1167 0.0724 -0.0085 0.0104 0.0076
O7 0.1266 0.0805 0.1446 0.0205 -0.0034 0.0094
O8 0.0463 0.0664 0.1144 -0.0273 -0.0113 0.0073
O9 0.1055 0.0724 0.1275 -0.0144 0.0114 -0.0114
O10 0.0935 0.0774 0.1235 -0.0033 -0.0064 0.0014
O11 0.1115 0.1166 0.1195 -0.0104 -0.0044 0.0014
O12 0.1406 0.1025 0.1266 0.0024 0.0005 -0.0175
Zn1 0.06405 0.03834 0.04564 0.00134 0.00463 -0.00014
Zn2 0.06025 0.05025 0.05225 -0.00144 -0.00274 -0.00114

_geom_special_details            
;
All esds except the esd in the dihedral angle between two l.s. planes
are estimated using the full covariance matrix. The cell esds are taken
into account individually in the estimation of esds in distances, angles
and torsion angles; correlations between esds in cell parameters are only
used when they are defined by crystal symmetry. An approximate isotropic
treatment of cell esds is used for estimating esds involving l.s. planes.
;

loop_
_geom_bond_atom_site_label_1
_geom_bond_atom_site_label_2
_geom_bond_distance
_geom_bond_site_symmetry_2
_geom_bond_publ_flag
C1 O1 1.11111 . ?
C1 O2 1.26612 . ?
C1 C2 1.59711 . ?
C2 C3 1.2589 . ?
C2 C7 1.5649 . ?
C3 C4 1.5899 . ?
C3 H3 0.9500 . ?
C4 C8 1.36510 . ?
C4 C5 1.4518 . ?
C5 C11 1.3529 . ?
C5 C6 1.5199 . ?
C6 C7 1.3698 . ?
C6 H6 0.9500 . ?
C7 H7 0.9500 . ?
C8 C9 1.30210 . ?
C8 H8 0.9500 . ?
C9 C10 1.46611 . ?
C9 H9 0.9500 . ?
C10 C11 1.34110 . ?
C10 C24 1.42910 1_455 ?
C11 H11 0.9500 . ?
C12 O3 1.1709 . ?
C12 O4 1.2149 . ?
C12 C22 1.5399 1_554 ?
C13 C14 1.28211 . ?
C13 O6 1.29610 . ?
C13 O5 1.38711 . ?
C14 C19 1.40510 . ?
C14 C15 1.64810 . ?
C15 C16 1.2529 . ?
C15 H15 0.9500 . ?
C16 C17 1.4399 . ?
C16 C20 1.4609 . ?
C17 C18 1.3999 . ?
C17 C23 1.5478 . ?
C18 C19 1.2799 . ?
C18 H18 0.9500 . ?
C19 H19 0.9500 . ?
C20 C21 1.40710 . ?
C20 H20 0.9500 . ?
C21 C22 1.5249 . ?
C21 H21 0.9500 . ?
C22 C23 1.3238 . ?
C22 C12 1.5399 1_556 ?
C23 H23 0.9500 . ?
C24 O7 1.21210 . ?
C24 O8 1.3229 . ?
C24 C10 1.42910 1_655 ?
C25 N1 1.3359 . ?
C25 C26 1.34010 . ?
C25 H25 0.9500 . ?
C26 C27 1.30911 . ?
C26 H26 0.9500 . ?
C27 C28 1.49610 . ?
C27 H27 0.9500 . ?
C28 C33 1.32711 . ?
C28 C29 1.63511 . ?
C29 N1 1.12710 . ?
C29 C30 1.44311 . ?
C30 C31 1.29311 . ?
C30 H30 0.9500 . ?
C31 C32 1.51112 . ?
C31 H31 0.9500 . ?
C32 C33 1.36112 . ?
C32 H32 0.9500 . ?
C33 N2 1.61112 . ?
C34 O10 1.1689 . ?
C34 N2 1.38910 . ?
C34 C42 1.52412 . ?
C35 O9 1.21410 . ?
C35 N2 1.26411 . ?
C35 C36 1.45312 . ?
C36 C41 1.28911 . ?
C36 C37 1.40912 . ?
C37 C38 1.23815 . ?
C37 H37 0.9500 . ?
C38 C39 1.31714 . ?
C38 H38 0.9500 . ?
C39 C40 1.40311 . ?
C39 C47 1.56014 . ?
C40 C45 1.42512 . ?
C40 C41 1.49910 . ?
C41 C42 1.28610 . ?
C42 C43 1.40710 . ?
C43 C44 1.37611 . ?
C43 H43 0.9500 . ?
C44 C45 1.15710 . ?
C44 H44 0.9500 . ?
C45 C46 1.68116 . ?
C46 O12 1.24412 . ?
C46 N3 1.50015 . ?
C47 N3 1.13012 . ?
C47 O11 1.53413 . ?
C48 C53 1.37011 . ?
C48 C49 1.56313 . ?
C48 N3 1.59911 . ?
C49 C50 1.632 . ?
C49 H49 0.9500 . ?
C50 C51 1.742 . ?
C50 H50 0.9500 . ?
C51 C52 1.66313 . ?
C51 H51 0.9500 . ?
C52 C53 1.3329 . ?
C52 N4 1.4337 . ?
C53 C54 1.48811 . ?
C54 C55 1.36211 . ?
C54 H54 0.9500 . ?
C55 C56 1.22414 . ?
C55 H55 0.9500 . ?
C56 N4 1.39012 . ?
C56 H56 0.9500 . ?
N1 Zn2 2.1758 . ?
N4 Zn1 1.9996 1_545 ?
O1 Zn2 2.0177 . ?
O2 Zn1 2.1456 . ?
O3 Zn2 2.0205 . ?
O4 Zn1 2.0255 . ?
O5 Zn2 1.9407 . ?
O6 Zn1 2.0127 . ?
O7 Zn2 1.9838 . ?
O8 Zn1 2.0245 . ?
Zn1 N4 1.9996 1_565 ?
Zn1 Zn2 2.993910 . ?

loop_
_geom_angle_atom_site_label_1
_geom_angle_atom_site_label_2
_geom_angle_atom_site_label_3
_geom_angle
_geom_angle_site_symmetry_1
_geom_angle_site_symmetry_3
_geom_angle_publ_flag
O1 C1 O2 136.49 . . ?
O1 C1 C2 118.98 . . ?
O2 C1 C2 104.69 . . ?
C3 C2 C7 129.86 . . ?
C3 C2 C1 113.87 . . ?
C7 C2 C1 116.46 . . ?
C2 C3 C4 117.66 . . ?
C2 C3 H3 121.2 . . ?
C4 C3 H3 121.2 . . ?
C8 C4 C5 122.16 . . ?
C8 C4 C3 121.57 . . ?
C5 C4 C3 114.96 . . ?
C11 C5 C4 114.86 . . ?
C11 C5 C6 122.06 . . ?
C4 C5 C6 120.85 . . ?
C7 C6 C5 122.26 . . ?
C7 C6 H6 118.9 . . ?
C5 C6 H6 118.9 . . ?
C6 C7 C2 113.25 . . ?
C6 C7 H7 123.4 . . ?
C2 C7 H7 123.4 . . ?
C9 C8 C4 114.77 . . ?
C9 C8 H8 122.6 . . ?
C4 C8 H8 122.6 . . ?
C8 C9 C10 128.78 . . ?
C8 C9 H9 115.6 . . ?
C10 C9 H9 115.6 . . ?
C11 C10 C24 129.58 . 1_455 ?
C11 C10 C9 110.47 . . ?
C24 C10 C9 120.18 1_455 . ?
C10 C11 C5 127.07 . . ?
C10 C11 H11 116.5 . . ?
C5 C11 H11 116.5 . . ?
O3 C12 O4 127.18 . . ?
O3 C12 C22 115.07 . 1_554 ?
O4 C12 C22 115.67 . 1_554 ?
C14 C13 O6 113.99 . . ?
C14 C13 O5 122.28 . . ?
O6 C13 O5 123.48 . . ?
C13 C14 C19 134.48 . . ?
C13 C14 C15 119.57 . . ?
C19 C14 C15 105.67 . . ?
C16 C15 C14 118.66 . . ?
C16 C15 H15 120.7 . . ?
C14 C15 H15 120.7 . . ?
C15 C16 C17 123.06 . . ?
C15 C16 C20 120.77 . . ?
C17 C16 C20 115.55 . . ?
C18 C17 C16 122.95 . . ?
C18 C17 C23 118.66 . . ?
C16 C17 C23 118.15 . . ?
C19 C18 C17 110.26 . . ?
C19 C18 H18 124.9 . . ?
C17 C18 H18 124.9 . . ?
C18 C19 C14 135.77 . . ?
C18 C19 H19 112.2 . . ?
C14 C19 H19 112.2 . . ?
C21 C20 C16 128.56 . . ?
C21 C20 H20 115.8 . . ?
C16 C20 H20 115.8 . . ?
C20 C21 C22 111.46 . . ?
C20 C21 H21 124.3 . . ?
C22 C21 H21 124.3 . . ?
C23 C22 C21 124.55 . . ?
C23 C22 C12 118.45 . 1_556 ?
C21 C22 C12 116.15 . 1_556 ?
C22 C23 C17 119.95 . . ?
C22 C23 H23 120.0 . . ?
C17 C23 H23 120.0 . . ?
O7 C24 O8 130.87 . . ?
O7 C24 C10 119.98 . 1_655 ?
O8 C24 C10 108.97 . 1_655 ?
N1 C25 C26 126.78 . . ?
N1 C25 H25 116.7 . . ?
C26 C25 H25 116.7 . . ?
C27 C26 C25 114.78 . . ?
C27 C26 H26 122.6 . . ?
C25 C26 H26 122.6 . . ?
C26 C27 C28 121.87 . . ?
C26 C27 H27 119.1 . . ?
C28 C27 H27 119.1 . . ?
C33 C28 C27 131.47 . . ?
C33 C28 C29 117.77 . . ?
C27 C28 C29 110.36 . . ?
N1 C29 C30 130.89 . . ?
N1 C29 C28 115.68 . . ?
C30 C29 C28 107.47 . . ?
C31 C30 C29 126.98 . . ?
C31 C30 H30 116.6 . . ?
C29 C30 H30 116.6 . . ?
C30 C31 C32 123.78 . . ?
C30 C31 H31 118.2 . . ?
C32 C31 H31 118.2 . . ?
C33 C32 C31 110.28 . . ?
C33 C32 H32 124.9 . . ?
C31 C32 H32 124.9 . . ?
C28 C33 C32 131.29 . . ?
C28 C33 N2 115.47 . . ?
C32 C33 N2 113.28 . . ?
O10 C34 N2 128.88 . . ?
O10 C34 C42 121.67 . . ?
N2 C34 C42 108.47 . . ?
O9 C35 N2 127.68 . . ?
O9 C35 C36 120.59 . . ?
N2 C35 C36 111.98 . . ?
C41 C36 C37 118.010 . . ?
C41 C36 C35 121.18 . . ?
C37 C36 C35 120.89 . . ?
C38 C37 C36 123.111 . . ?
C38 C37 H37 118.4 . . ?
C36 C37 H37 118.4 . . ?
C37 C38 C39 122.210 . . ?
C37 C38 H38 118.9 . . ?
C39 C38 H38 118.9 . . ?
C38 C39 C40 118.09 . . ?
C38 C39 C47 132.810 . . ?
C40 C39 C47 108.98 . . ?
C39 C40 C45 127.28 . . ?
C39 C40 C41 115.77 . . ?
C45 C40 C41 112.17 . . ?
C42 C41 C36 125.88 . . ?
C42 C41 C40 115.27 . . ?
C36 C41 C40 118.58 . . ?
C41 C42 C43 125.28 . . ?
C41 C42 C34 118.97 . . ?
C43 C42 C34 115.87 . . ?
C44 C43 C42 115.47 . . ?
C44 C43 H43 122.3 . . ?
C42 C43 H43 122.3 . . ?
C45 C44 C43 122.19 . . ?
C45 C44 H44 118.9 . . ?
C43 C44 H44 118.9 . . ?
C44 C45 C40 125.410 . . ?
C44 C45 C46 119.310 . . ?
C40 C45 C46 114.68 . . ?
O12 C46 N3 117.311 . . ?
O12 C46 C45 118.210 . . ?
N3 C46 C45 109.89 . . ?
N3 C47 O11 117.410 . . ?
N3 C47 C39 130.812 . . ?
O11 C47 C39 109.39 . . ?
C53 C48 C49 126.18 . . ?
C53 C48 N3 117.26 . . ?
C49 C48 N3 116.38 . . ?
C48 C49 C50 124.912 . . ?
C48 C49 H49 117.6 . . ?
C50 C49 H49 117.6 . . ?
C49 C50 C51 102.214 . . ?
C49 C50 H50 128.9 . . ?
C51 C50 H50 128.9 . . ?
C52 C51 C50 118.411 . . ?
C52 C51 H51 120.8 . . ?
C50 C51 H51 120.8 . . ?
C53 C52 N4 119.55 . . ?
C53 C52 C51 121.36 . . ?
N4 C52 C51 107.76 . . ?
C52 C53 C48 119.36 . . ?
C52 C53 C54 120.67 . . ?
C48 C53 C54 119.67 . . ?
C55 C54 C53 115.78 . . ?
C55 C54 H54 122.1 . . ?
C53 C54 H54 122.1 . . ?
C56 C55 C54 114.39 . . ?
C56 C55 H55 122.8 . . ?
C54 C55 H55 122.8 . . ?
C55 C56 N4 137.812 . . ?
C55 C56 H56 111.1 . . ?
N4 C56 H56 111.1 . . ?
C29 N1 C25 127.09 . . ?
C29 N1 Zn2 117.47 . . ?
C25 N1 Zn2 114.35 . . ?
C35 N2 C34 133.98 . . ?
C35 N2 C33 118.27 . . ?
C34 N2 C33 107.87 . . ?
C47 N3 C46 123.010 . . ?
C47 N3 C48 124.59 . . ?
C46 N3 C48 112.18 . . ?
C56 N4 C52 105.77 . . ?
C56 N4 Zn1 127.57 . 1_545 ?
C52 N4 Zn1 126.04 . 1_545 ?
C1 O1 Zn2 124.86 . . ?
C1 O2 Zn1 118.66 . . ?
C12 O3 Zn2 126.06 . . ?
C12 O4 Zn1 130.85 . . ?
C13 O5 Zn2 127.26 . . ?
C13 O6 Zn1 127.87 . . ?
C24 O7 Zn2 128.06 . . ?
C24 O8 Zn1 121.05 . . ?
N4 Zn1 O6 108.53 1_565 . ?
N4 Zn1 O8 108.92 1_565 . ?
O6 Zn1 O8 88.73 . . ?
N4 Zn1 O4 95.92 1_565 . ?
O6 Zn1 O4 155.33 . . ?
O8 Zn1 O4 87.12 . . ?
N4 Zn1 O2 91.02 1_565 . ?
O6 Zn1 O2 93.13 . . ?
O8 Zn1 O2 158.33 . . ?
O4 Zn1 O2 82.23 . . ?
N4 Zn1 Zn2 166.6016 1_565 . ?
O6 Zn1 Zn2 80.02 . . ?
O8 Zn1 Zn2 81.1015 . . ?
O4 Zn1 Zn2 75.2816 . . ?
O2 Zn1 Zn2 78.02 . . ?
O5 Zn2 O7 87.43 . . ?
O5 Zn2 O1 92.63 . . ?
O7 Zn2 O1 159.03 . . ?
O5 Zn2 O3 161.03 . . ?
O7 Zn2 O3 84.93 . . ?
O1 Zn2 O3 88.52 . . ?
O5 Zn2 N1 92.23 . . ?
O7 Zn2 N1 98.93 . . ?
O1 Zn2 N1 102.13 . . ?
O3 Zn2 N1 106.13 . . ?
O5 Zn2 Zn1 81.62 . . ?
O7 Zn2 Zn1 79.02 . . ?
O1 Zn2 Zn1 80.22 . . ?
O3 Zn2 Zn1 79.9317 . . ?
N1 Zn2 Zn1 173.4818 . . ?

_diffrn_measured_fraction_theta_max 0.971
_diffrn_reflns_theta_full        30.95
_diffrn_measured_fraction_theta_full 0.971
_refine_diff_density_max         1.381
_refine_diff_density_min         -0.885
_refine_diff_density_rms         0.377

# SQUEEZE RESULTS APPEND TO CIF
loop_
_platon_squeeze_void_nr
_platon_squeeze_void_average_x
_platon_squeeze_void_average_y
_platon_squeeze_void_average_z
_platon_squeeze_void_volume
_platon_squeeze_void_count_electrons
1 0.011 0.037 0.002 2045.4 1284.8
_platon_squeeze_details          
; ?
;
