####################################################################### 
# 
# This file contains crystal structure data downloaded from the 
# Cambridge Structural Database CSD hosted by the Cambridge 
# Crystallographic Data Centre CCDC.
# 
# Full information about CCDC data access policies and citation 
# guidelines are available at http://www.ccdc.cam.ac.uk/access/V1 
# 
# Audit and citation data items may have been added by the CCDC. 
# Please retain this information to preserve the provenance of 
# this file and to allow appropriate attribution of the data. 
# 
#######################################################################

data_Al2[O3PC2H4PO3]H2O2F2u0.513H2O
_audit_block_doi                 10.5517/cc6xg9v
_database_code_depnum_ccdc_archive 'CCDC 206097'
loop_
_citation_id
_citation_doi
_citation_year
1 10.1021/cm0212663 2003
_audit_update_record             
;
2003-03-17 deposited with the CCDC.	2020-03-06 downloaded from the CCDC.
;

_audit_creation_method           SHELXL-97
_chemical_name_systematic        
;
?
;
_chemical_name_common            none
_chemical_melting_point          'not measured'
_chemical_formula_moiety         Al2[O3PC2H4PO3]H2O2F2u0.513H2O
_chemical_formula_sum            'C2 H4 Al2 F2 O8.51 P2'
_chemical_formula_weight         318.11

loop_
_atom_type_symbol
_atom_type_description
_atom_type_scat_dispersion_real
_atom_type_scat_dispersion_imag
_atom_type_scat_source
C C 0.0030 0.0020 'International Tables Vol C Tables 4.2.6.8 and 6.1.1.4'
H H 0.0000 0.0000 'International Tables Vol C Tables 4.2.6.8 and 6.1.1.4'
Al Al 0.0610 0.0490 'International Tables Vol C Tables 4.2.6.8 and 6.1.1.4'
F F 0.0170 0.0100 'International Tables Vol C Tables 4.2.6.8 and 6.1.1.4'
O O 0.0100 0.0060 'International Tables Vol C Tables 4.2.6.8 and 6.1.1.4'
P P 0.0980 0.0900 'International Tables Vol C Tables 4.2.6.8 and 6.1.1.4'

_symmetry_cell_setting           monoclinic
_symmetry_space_group_name_H-M   p21/m

loop_
_symmetry_equiv_pos_as_xyz
'x, y, z'
'-x, y+1/2, -z'
'-x, -y, -z'
'x, -y-1/2, z'

_cell_length_a                   4.938712
_cell_length_b                   12.0603
_cell_length_c                   8.185619
_cell_angle_alpha                90.00
_cell_angle_beta                 92.0454
_cell_angle_gamma                90.00
_cell_volume                     487.22
_cell_formula_units_Z            2
_cell_measurement_temperature    1232
_cell_measurement_reflns_used    4111
_cell_measurement_theta_min      2.43
_cell_measurement_theta_max      25.69

_exptl_crystal_description       plate
_exptl_crystal_colour            colourless
_exptl_crystal_size_max          0.05
_exptl_crystal_size_mid          0.04
_exptl_crystal_size_min          0.005
_exptl_crystal_density_meas      'not measured'
_exptl_crystal_density_diffrn    2.168
_exptl_crystal_density_method    'not measured'
_exptl_crystal_F_000             316
_exptl_absorpt_coefficient_mu    'not measured'
_exptl_absorpt_correction_type   sadabs

_exptl_special_details           
;
?
;

_diffrn_ambient_temperature      1232
_diffrn_radiation_wavelength     0.69310
_diffrn_radiation_type           synchrotron
_diffrn_radiation_source         synchrotron
_diffrn_radiation_monochromator  graphite
_diffrn_measurement_device_type  smart
_diffrn_measurement_method       smart
_diffrn_detector_area_resol_mean ?
_diffrn_standards_number         ?
_diffrn_standards_interval_count ?
_diffrn_standards_interval_time  ?
_diffrn_standards_decay_%        ?
_diffrn_reflns_number            4111
_diffrn_reflns_av_R_equivalents  0.0782
_diffrn_reflns_av_sigmaI/netI    0.0780
_diffrn_reflns_limit_h_min       -6
_diffrn_reflns_limit_h_max       6
_diffrn_reflns_limit_k_min       -15
_diffrn_reflns_limit_k_max       15
_diffrn_reflns_limit_l_min       -10
_diffrn_reflns_limit_l_max       10
_diffrn_reflns_theta_min         2.43
_diffrn_reflns_theta_max         25.69
_reflns_number_total             1042
_reflns_number_gt                690
_reflns_threshold_expression     >2sigmaI

_computing_data_collection       smart
_computing_cell_refinement       saint
_computing_data_reduction        saint
_computing_structure_solution    shelx86
_computing_structure_refinement  'SHELXL-97 Sheldrick, 1997'


_refine_special_details          
;
Refinement of F^2^ against ALL reflections.  The weighted R-factor wR and
goodness of fit S are based on F^2^, conventional R-factors R are based
on F, with F set to zero for negative F^2^. The threshold expression of
F^2^ > 2sigmaF^2^ is used only for calculating R-factorsgt etc. and is
not relevant to the 
choice of reflections for refinement.  R-factors based
on F^2^ are statistically about twice as large as those based on F, and R-
factors based on ALL data will be even larger.
;

_refine_ls_structure_factor_coef Fsqd
_refine_ls_matrix_type           full
_refine_ls_weighting_scheme      calc
_refine_ls_weighting_details     
'calc w=1/[\s^2^Fo^2^+0.1644P^2^+0.0000P] where P=Fo^2^+2Fc^2^/3'
_atom_sites_solution_primary     direct
_atom_sites_solution_secondary   difmap
_atom_sites_solution_hydrogens   geom
_refine_ls_hydrogen_treatment    mixed
_refine_ls_extinction_method     none
_refine_ls_extinction_coef       ?
_refine_ls_number_reflns         1042
_refine_ls_number_parameters     94
_refine_ls_number_restraints     0
_refine_ls_R_factor_all          0.1227
_refine_ls_R_factor_gt           0.0886
_refine_ls_wR_factor_ref         0.2352
_refine_ls_wR_factor_gt          0.2161
_refine_ls_goodness_of_fit_ref   0.994
_refine_ls_restrained_S_all      0.994
_refine_ls_shift/su_max          0.302
_refine_ls_shift/su_mean         0.003

loop_
_atom_site_label
_atom_site_type_symbol
_atom_site_fract_x
_atom_site_fract_y
_atom_site_fract_z
_atom_site_U_iso_or_equiv
_atom_site_adp_type
_atom_site_occupancy
_atom_site_symmetry_multiplicity
_atom_site_calc_flag
_atom_site_refinement_flags
_atom_site_disorder_assembly
_atom_site_disorder_group
O7 O 0.4374 0.7500 0.6512 0.0417 Uani 0.513 2 d SP . .
H2 H 0.30418 0.4727 0.44911 0.022 Uiso 1 1 d . . .
H1 H 0.06313 0.3826 0.4358 0.00017 Uiso 1 1 d . . .
Al2 Al 0.24566 0.7500 0.13824 0.01298 Uani 1 2 d S . .
P1 P 0.00904 0.5175316 0.23412 0.01286 Uani 1 1 d . . .
Al1 Al 0.5000 0.5000 0.0000 0.00967 Uani 1 2 d S . .
O6 O -0.000216 0.7500 -0.04909 0.019917 Uani 1 2 d S . .
O1 O 0.20289 0.45824 0.12186 0.009611 Uani 1 1 d . . .
O5 O 0.528218 0.7500 0.306712 0.0352 Uani 1 2 d S . .
F1 F 0.44289 0.64723 0.03585 0.016910 Uani 1 1 d . . .
O3 O -0.282011 0.49174 0.19236 0.018412 Uani 1 1 d . . .
C1 C 0.082016 0.46866 0.43569 0.015616 Uani 1 1 d . . .
O2 O 0.053611 0.64294 0.23716 0.017012 Uani 1 1 d . . .

loop_
_atom_site_aniso_label
_atom_site_aniso_U_11
_atom_site_aniso_U_22
_atom_site_aniso_U_33
_atom_site_aniso_U_23
_atom_site_aniso_U_13
_atom_site_aniso_U_12
O7 0.05515 0.05014 0.01810 0.000 0.0099 0.000
Al2 0.017317 0.009814 0.011816 0.000 0.001213 0.000
P1 0.017511 0.012810 0.00829 0.00097 0.00067 0.00027
Al1 0.013615 0.010814 0.004313 -0.001311 -0.000711 0.000812
06 0.0264 0.0144 0.0194 0.000 -0.0083 0.000
O1 0.0102 0.0092 0.0093 0.001418 0.001719 0.000518
05 0.0385 0.0285 0.0365 0.000 -0.0214 0.000
F1 0.0212 0.0082 0.0222 -0.001217 0.006718 0.002317
O3 0.0143 0.0313 0.0103 0.0102 -0.0012 -0.0012
C1 0.0254 0.0164 0.0063 0.0003 0.0023 0.0033
O2 0.0283 0.0083 0.0153 0.0012 0.0052 -0.0012

_geom_special_details            
;
All esds except the esd in the dihedral angle between two l.s. planes
are estimated using the full covariance matrix.  The cell esds are taken
into account individually in the estimation of esds in distances, angles
and torsion angles; correlations between esds in cell parameters are only
used when they are defined by crystal symmetry.  An approximate isotropic
treatment of cell esds is used for estimating esds involving l.s. planes.

;

loop_
_geom_bond_atom_site_label_1
_geom_bond_atom_site_label_2
_geom_bond_distance
_geom_bond_site_symmetry_2
_geom_bond_publ_flag
Al2 F1 1.8025 4_575 ?
Al2 F1 1.8025 . ?
Al2 O2 1.8105 4_575 ?
Al2 O2 1.8105 . ?
Al2 O6 1.9218 . ?
Al2 O5 1.9269 . ?
P1 O3 1.4986 . ?
P1 O1 1.5285 . ?
P1 O2 1.5285 . ?
P1 C1 1.7767 . ?
Al1 F1 1.8234 . ?
Al1 F1 1.8234 3_665 ?
Al1 O1 1.8734 . ?
Al1 O1 1.8734 3_665 ?
Al1 O3 1.8785 1_655 ?
Al1 O3 1.8785 3_565 ?
O3 Al1 1.8785 1_455 ?
C1 C1 1.55014 3_566 ?

loop_
_geom_angle_atom_site_label_1
_geom_angle_atom_site_label_2
_geom_angle_atom_site_label_3
_geom_angle
_geom_angle_site_symmetry_1
_geom_angle_site_symmetry_3
_geom_angle_publ_flag
F1 Al2 F1 87.03 4_575 . ?
F1 Al2 O2 91.02 4_575 4_575 ?
F1 Al2 O2 178.02 . 4_575 ?
F1 Al2 O2 178.02 4_575 . ?
F1 Al2 O2 91.02 . . ?
O2 Al2 O2 91.04 4_575 . ?
F1 Al2 06 88.03 4_575 . ?
F1 Al2 06 88.03 . . ?
O2 Al2 06 91.73 4_575 . ?
O2 Al2 06 91.73 . . ?
F1 Al2 05 86.83 4_575 . ?
F1 Al2 05 86.83 . . ?
O2 Al2 05 93.33 4_575 . ?
O2 Al2 05 93.33 . . ?
06 Al2 05 172.84 . . ?
O3 P1 O1 112.43 . . ?
O3 P1 O2 110.23 . . ?
O1 P1 O2 112.33 . . ?
O3 P1 C1 107.73 . . ?
O1 P1 C1 107.03 . . ?
O2 P1 C1 106.83 . . ?
F1 Al1 F1 180.0 . 3_665 ?
F1 Al1 O1 92.72 . . ?
F1 Al1 O1 87.32 3_665 . ?
F1 Al1 O1 87.32 . 3_665 ?
F1 Al1 O1 92.72 3_665 3_665 ?
O1 Al1 O1 180.03 . 3_665 ?
F1 Al1 O3 90.32 . 1_655 ?
F1 Al1 O3 89.72 3_665 1_655 ?
O1 Al1 O3 88.62 . 1_655 ?
O1 Al1 O3 91.42 3_665 1_655 ?
F1 Al1 O3 89.72 . 3_565 ?
F1 Al1 O3 90.32 3_665 3_565 ?
O1 Al1 O3 91.42 . 3_565 ?
O1 Al1 O3 88.62 3_665 3_565 ?
O3 Al1 O3 180.03 1_655 3_565 ?
P1 O1 Al1 135.63 . . ?
Al2 F1 Al1 146.63 . . ?
P1 O3 Al1 134.23 . 1_455 ?
C1 C1 P1 112.17 3_566 . ?
P1 O2 Al2 140.93 . . ?

_diffrn_measured_fraction_theta_max 0.994
_diffrn_reflns_theta_full        25.69
_diffrn_measured_fraction_theta_full 0.994
_refine_diff_density_max         1.953
_refine_diff_density_min         -0.662
_refine_diff_density_rms         0.268

#===END

